(set-logic HORN)


(declare-fun |h44| ( Int Int Int Int Int Int Int Int Int Int Int Int Int Int ) Bool)
(declare-fun |h19| ( Int Int Int Int Int Int Int Int Int Int Int Int Int Int ) Bool)
(declare-fun |h30| ( Int Int Int Int Int Int Int Int Int Int Int Int Int Int ) Bool)
(declare-fun |h39| ( Int Int Int Int Int Int Int Int Int Int Int Int Int Int ) Bool)
(declare-fun |h42| ( Int Int Int Int Int Int Int Int Int Int Int Int Int Int ) Bool)
(declare-fun |h4| ( Int Int Int Int Int Int Int Int Int Int Int Int Int Int ) Bool)
(declare-fun |h35| ( Int Int Int Int Int Int Int Int Int Int Int Int Int Int ) Bool)
(declare-fun |h43| ( Int Int Int Int Int Int Int Int Int Int Int Int Int Int ) Bool)
(declare-fun |h10| ( Int Int Int Int Int Int Int Int Int Int Int Int Int Int ) Bool)
(declare-fun |h37| ( Int Int Int Int Int Int Int Int Int Int Int Int Int Int ) Bool)
(declare-fun |h14| ( Int Int Int Int Int Int Int Int Int Int Int Int Int Int ) Bool)
(declare-fun |h49| ( Int Int Int Int Int Int Int Int Int Int Int Int Int Int ) Bool)
(declare-fun |h13| ( Int Int Int Int Int Int Int Int Int Int Int Int Int Int ) Bool)
(declare-fun |h38| ( Int Int Int Int Int Int Int Int Int Int Int Int Int Int ) Bool)
(declare-fun |h26| ( Int Int Int Int Int Int Int Int Int Int Int Int Int Int ) Bool)
(declare-fun |CHC_COMP_FALSE| ( ) Bool)
(declare-fun |h25| ( Int Int Int Int Int Int Int Int Int Int Int Int Int Int ) Bool)
(declare-fun |h48| ( Int Int Int Int Int Int Int Int Int Int Int Int Int Int ) Bool)
(declare-fun |h18| ( Int Int Int Int Int Int Int Int Int Int Int Int Int Int ) Bool)
(declare-fun |h33| ( Int Int Int Int Int Int Int Int Int Int Int Int Int Int ) Bool)
(declare-fun |h46| ( Int Int Int Int Int Int Int Int Int Int Int Int Int Int ) Bool)
(declare-fun |h1| ( Int Int Int Int Int Int Int Int Int Int Int Int Int Int ) Bool)
(declare-fun |h45| ( Int Int Int Int Int Int Int Int Int Int Int Int Int Int ) Bool)
(declare-fun |h11| ( Int Int Int Int Int Int Int Int Int Int Int Int Int Int ) Bool)
(declare-fun |h24| ( Int Int Int Int Int Int Int Int Int Int Int Int Int Int ) Bool)
(declare-fun |h12| ( Int Int Int Int Int Int Int Int Int Int Int Int Int Int ) Bool)
(declare-fun |h34| ( Int Int Int Int Int Int Int Int Int Int Int Int Int Int ) Bool)
(declare-fun |h36| ( Int Int Int Int Int Int Int Int Int Int Int Int Int Int ) Bool)
(declare-fun |h20| ( Int Int Int Int Int Int Int Int Int Int Int Int Int Int ) Bool)
(declare-fun |h22| ( Int Int Int Int Int Int Int Int Int Int Int Int Int Int ) Bool)
(declare-fun |h41| ( Int Int Int Int Int Int Int Int Int Int Int Int Int Int ) Bool)
(declare-fun |h3| ( Int Int Int Int Int Int Int Int Int Int Int Int Int Int ) Bool)
(declare-fun |h2| ( Int Int Int Int Int Int Int Int Int Int Int Int Int Int ) Bool)
(declare-fun |h47| ( Int Int Int Int Int Int Int Int Int Int Int Int Int Int ) Bool)
(declare-fun |h31| ( Int Int Int Int Int Int Int Int Int Int Int Int Int Int ) Bool)
(declare-fun |h32| ( Int Int Int Int Int Int Int Int Int Int Int Int Int Int ) Bool)
(declare-fun |h29| ( Int Int Int Int Int Int Int Int Int Int Int Int Int Int ) Bool)
(declare-fun |h40| ( Int Int Int Int Int Int Int Int Int Int Int Int Int Int ) Bool)
(declare-fun |h27| ( Int Int Int Int Int Int Int Int Int Int Int Int Int Int ) Bool)
(declare-fun |h23| ( Int Int Int Int Int Int Int Int Int Int Int Int Int Int ) Bool)
(declare-fun |h28| ( Int Int Int Int Int Int Int Int Int Int Int Int Int Int ) Bool)
(declare-fun |h9| ( Int Int Int Int Int Int Int Int Int Int Int Int Int Int ) Bool)
(declare-fun |h21| ( Int Int Int Int Int Int Int Int Int Int Int Int Int Int ) Bool)

(assert
  (forall ( (A Int) (B Int) (C Int) (D Int) (E Int) (F Int) (G Int) (v_7 Int) (v_8 Int) (v_9 Int) (v_10 Int) (v_11 Int) (v_12 Int) (v_13 Int) ) 
    (=>
      (and
        (and true
     (= v_7 A)
     (= v_8 B)
     (= v_9 C)
     (= v_10 D)
     (= v_11 E)
     (= v_12 F)
     (= v_13 G))
      )
      (h1 A B C D E F G v_7 v_8 v_9 v_10 v_11 v_12 v_13)
    )
  )
)
(assert
  (forall ( (A Int) (B Int) (C Int) (D Int) (E Int) (F Int) (G Int) (H Int) (I Int) (J Int) (K Int) (L Int) (M Int) (N Int) ) 
    (=>
      (and
        (h1 A B C D E F G H I J K L M N)
        true
      )
      (h2 A B C D E F G H I J K L M N)
    )
  )
)
(assert
  (forall ( (A Int) (B Int) (C Int) (D Int) (E Int) (F Int) (G Int) (H Int) (I Int) (J Int) (K Int) (L Int) (M Int) (N Int) ) 
    (=>
      (and
        (h2 A B C D E F G H I J K L M N)
        (>= (+ K (* (- 1) L)) 2)
      )
      (h3 A B C D E F G H I J K L M N)
    )
  )
)
(assert
  (forall ( (A Int) (B Int) (C Int) (D Int) (E Int) (F Int) (G Int) (H Int) (I Int) (J Int) (K Int) (L Int) (M Int) (N Int) (O Int) ) 
    (=>
      (and
        (h3 A B C D E F G O I J K L M N)
        (= H 0)
      )
      (h4 A B C D E F G H I J K L M N)
    )
  )
)
(assert
  (forall ( (A Int) (B Int) (C Int) (D Int) (E Int) (F Int) (G Int) (H Int) (I Int) (J Int) (K Int) (L Int) (M Int) (N Int) ) 
    (=>
      (and
        (h4 A B C D E F G H I J K L M N)
        true
      )
      (h9 A B C D E F G H I J K L M N)
    )
  )
)
(assert
  (forall ( (A Int) (B Int) (C Int) (D Int) (E Int) (F Int) (G Int) (H Int) (I Int) (J Int) (K Int) (L Int) (M Int) (N Int) ) 
    (=>
      (and
        (h9 A B C D E F G H I J K L M N)
        true
      )
      (h10 A B C D E F G H I J K L M N)
    )
  )
)
(assert
  (forall ( (A Int) (B Int) (C Int) (D Int) (E Int) (F Int) (G Int) (H Int) (I Int) (J Int) (K Int) (L Int) (M Int) (N Int) ) 
    (=>
      (and
        (h10 A B C D E F G H I J K L M N)
        true
      )
      (h11 A B C D E F G H I J K L M N)
    )
  )
)
(assert
  (forall ( (A Int) (B Int) (C Int) (D Int) (E Int) (F Int) (G Int) (H Int) (I Int) (J Int) (K Int) (L Int) (M Int) (N Int) ) 
    (=>
      (and
        (h49 A B C D E F G H I J K L M N)
        true
      )
      (h11 A B C D E F G H I J K L M N)
    )
  )
)
(assert
  (forall ( (A Int) (B Int) (C Int) (D Int) (E Int) (F Int) (G Int) (H Int) (I Int) (J Int) (K Int) (L Int) (M Int) (N Int) ) 
    (=>
      (and
        (h11 A B C D E F G H I J K L M N)
        true
      )
      (h12 A B C D E F G H I J K L M N)
    )
  )
)
(assert
  (forall ( (A Int) (B Int) (C Int) (D Int) (E Int) (F Int) (G Int) (H Int) (I Int) (J Int) (K Int) (L Int) (M Int) (N Int) ) 
    (=>
      (and
        (h12 A B C D E F G H I J K L M N)
        (<= (+ H (* (- 1) K)) (- 1))
      )
      (h13 A B C D E F G H I J K L M N)
    )
  )
)
(assert
  (forall ( (A Int) (B Int) (C Int) (D Int) (E Int) (F Int) (G Int) (H Int) (I Int) (J Int) (K Int) (L Int) (M Int) (N Int) (O Int) ) 
    (=>
      (and
        (h13 A B C D E F G H O J K L M N)
        (= H I)
      )
      (h14 A B C D E F G H I J K L M N)
    )
  )
)
(assert
  (forall ( (A Int) (B Int) (C Int) (D Int) (E Int) (F Int) (G Int) (H Int) (I Int) (J Int) (K Int) (L Int) (M Int) (N Int) ) 
    (=>
      (and
        (h14 A B C D E F G H I J K L M N)
        true
      )
      (h18 A B C D E F G H I J K L M N)
    )
  )
)
(assert
  (forall ( (A Int) (B Int) (C Int) (D Int) (E Int) (F Int) (G Int) (H Int) (I Int) (J Int) (K Int) (L Int) (M Int) (N Int) ) 
    (=>
      (and
        (h18 A B C D E F G H I J K L M N)
        true
      )
      (h19 A B C D E F G H I J K L M N)
    )
  )
)
(assert
  (forall ( (A Int) (B Int) (C Int) (D Int) (E Int) (F Int) (G Int) (H Int) (I Int) (J Int) (K Int) (L Int) (M Int) (N Int) ) 
    (=>
      (and
        (h19 A B C D E F G H I J K L M N)
        true
      )
      (h20 A B C D E F G H I J K L M N)
    )
  )
)
(assert
  (forall ( (A Int) (B Int) (C Int) (D Int) (E Int) (F Int) (G Int) (H Int) (I Int) (J Int) (K Int) (L Int) (M Int) (N Int) ) 
    (=>
      (and
        (h45 A B C D E F G H I J K L M N)
        true
      )
      (h20 A B C D E F G H I J K L M N)
    )
  )
)
(assert
  (forall ( (A Int) (B Int) (C Int) (D Int) (E Int) (F Int) (G Int) (H Int) (I Int) (J Int) (K Int) (L Int) (M Int) (N Int) ) 
    (=>
      (and
        (h48 A B C D E F G H I J K L M N)
        true
      )
      (h20 A B C D E F G H I J K L M N)
    )
  )
)
(assert
  (forall ( (A Int) (B Int) (C Int) (D Int) (E Int) (F Int) (G Int) (H Int) (I Int) (J Int) (K Int) (L Int) (M Int) (N Int) ) 
    (=>
      (and
        (h20 A B C D E F G H I J K L M N)
        true
      )
      (h21 A B C D E F G H I J K L M N)
    )
  )
)
(assert
  (forall ( (A Int) (B Int) (C Int) (D Int) (E Int) (F Int) (G Int) (H Int) (I Int) (J Int) (K Int) (L Int) (M Int) (N Int) ) 
    (=>
      (and
        (h21 A B C D E F G H I J K L M N)
        (<= (+ I (* (- 1) L)) (- 1))
      )
      (h22 A B C D E F G H I J K L M N)
    )
  )
)
(assert
  (forall ( (A Int) (B Int) (C Int) (D Int) (E Int) (F Int) (G Int) (H Int) (I Int) (J Int) (K Int) (L Int) (M Int) (N Int) ) 
    (=>
      (and
        (h22 A B C D E F G H I J K L M N)
        true
      )
      (h23 A B C D E F G H I J K L M N)
    )
  )
)
(assert
  (forall ( (A Int) (B Int) (C Int) (D Int) (E Int) (F Int) (G Int) (H Int) (I Int) (J Int) (K Int) (L Int) (M Int) (N Int) ) 
    (=>
      (and
        (h21 A B C D E F G H I J K L M N)
        (>= (+ I (* (- 1) L)) 0)
      )
      (h24 A B C D E F G H I J K L M N)
    )
  )
)
(assert
  (forall ( (A Int) (B Int) (C Int) (D Int) (E Int) (F Int) (G Int) (H Int) (I Int) (J Int) (K Int) (L Int) (M Int) (N Int) ) 
    (=>
      (and
        (h24 A B C D E F G H I J K L M N)
        true
      )
      (h25 A B C D E F G H I J K L M N)
    )
  )
)
(assert
  (forall ( (A Int) (B Int) (C Int) (D Int) (E Int) (F Int) (G Int) (H Int) (I Int) (J Int) (K Int) (L Int) (M Int) (N Int) ) 
    (=>
      (and
        (h25 A B C D E F G H I J K L M N)
        true
      )
      (h26 A B C D E F G H I J K L M N)
    )
  )
)
(assert
  (forall ( (A Int) (B Int) (C Int) (D Int) (E Int) (F Int) (G Int) (H Int) (I Int) (J Int) (K Int) (L Int) (M Int) (N Int) ) 
    (=>
      (and
        (h23 A B C D E F G H I J K L M N)
        true
      )
      (h27 A B C D E F G H I J K L M N)
    )
  )
)
(assert
  (forall ( (A Int) (B Int) (C Int) (D Int) (E Int) (F Int) (G Int) (H Int) (I Int) (J Int) (K Int) (L Int) (M Int) (N Int) ) 
    (=>
      (and
        (h27 A B C D E F G H I J K L M N)
        true
      )
      (h28 A B C D E F G H I J K L M N)
    )
  )
)
(assert
  (forall ( (A Int) (B Int) (C Int) (D Int) (E Int) (F Int) (G Int) (H Int) (I Int) (J Int) (K Int) (L Int) (M Int) (N Int) ) 
    (=>
      (and
        (h28 A B C D E F G H I J K L M N)
        (<= M (- 1))
      )
      (h29 A B C D E F G H I J K L M N)
    )
  )
)
(assert
  (forall ( (A Int) (B Int) (C Int) (D Int) (E Int) (F Int) (G Int) (H Int) (I Int) (J Int) (K Int) (L Int) (M Int) (N Int) ) 
    (=>
      (and
        (h29 A B C D E F G H I J K L M N)
        true
      )
      (h30 A B C D E F G H I J K L M N)
    )
  )
)
(assert
  (forall ( (A Int) (B Int) (C Int) (D Int) (E Int) (F Int) (G Int) (H Int) (I Int) (J Int) (K Int) (L Int) (M Int) (N Int) ) 
    (=>
      (and
        (h31 A B C D E F G H I J K L M N)
        true
      )
      (h30 A B C D E F G H I J K L M N)
    )
  )
)
(assert
  (forall ( (A Int) (B Int) (C Int) (D Int) (E Int) (F Int) (G Int) (H Int) (I Int) (J Int) (K Int) (L Int) (M Int) (N Int) ) 
    (=>
      (and
        (h28 A B C D E F G H I J K L M N)
        (>= M 1)
      )
      (h31 A B C D E F G H I J K L M N)
    )
  )
)
(assert
  (forall ( (A Int) (B Int) (C Int) (D Int) (E Int) (F Int) (G Int) (H Int) (I Int) (J Int) (K Int) (L Int) (M Int) (N Int) ) 
    (=>
      (and
        (h28 A B C D E F G H I J K L M N)
        (= M 0)
      )
      (h32 A B C D E F G H I J K L M N)
    )
  )
)
(assert
  (forall ( (A Int) (B Int) (C Int) (D Int) (E Int) (F Int) (G Int) (H Int) (I Int) (J Int) (K Int) (L Int) (M Int) (N Int) ) 
    (=>
      (and
        (h32 A B C D E F G H I J K L M N)
        true
      )
      (h33 A B C D E F G H I J K L M N)
    )
  )
)
(assert
  (forall ( (A Int) (B Int) (C Int) (D Int) (E Int) (F Int) (G Int) (H Int) (I Int) (J Int) (K Int) (L Int) (M Int) (N Int) ) 
    (=>
      (and
        (h30 A B C D E F G H I J K L M N)
        (<= I (- 1))
      )
      (h34 A B C D E F G H I J K L M N)
    )
  )
)
(assert
  (forall ( (A Int) (B Int) (C Int) (D Int) (E Int) (F Int) (G Int) (H Int) (I Int) (J Int) (K Int) (L Int) (M Int) (N Int) ) 
    (=>
      (and
        (h30 A B C D E F G H I J K L M N)
        (>= I 0)
      )
      (h35 A B C D E F G H I J K L M N)
    )
  )
)
(assert
  (forall ( (A Int) (B Int) (C Int) (D Int) (E Int) (F Int) (G Int) (H Int) (I Int) (J Int) (K Int) (L Int) (M Int) (N Int) (O Int) (P Int) ) 
    (=>
      (and
        (h35 A B C D E F G H O P K L M N)
        (and (= J 0) (= O (+ (- 1) I)))
      )
      (h36 A B C D E F G H I J K L M N)
    )
  )
)
(assert
  (forall ( (A Int) (B Int) (C Int) (D Int) (E Int) (F Int) (G Int) (H Int) (I Int) (J Int) (K Int) (L Int) (M Int) (N Int) ) 
    (=>
      (and
        (h36 A B C D E F G H I J K L M N)
        true
      )
      (h37 A B C D E F G H I J K L M N)
    )
  )
)
(assert
  (forall ( (A Int) (B Int) (C Int) (D Int) (E Int) (F Int) (G Int) (H Int) (I Int) (J Int) (K Int) (L Int) (M Int) (N Int) ) 
    (=>
      (and
        (h37 A B C D E F G H I J K L M N)
        true
      )
      (h38 A B C D E F G H I J K L M N)
    )
  )
)
(assert
  (forall ( (A Int) (B Int) (C Int) (D Int) (E Int) (F Int) (G Int) (H Int) (I Int) (J Int) (K Int) (L Int) (M Int) (N Int) ) 
    (=>
      (and
        (h38 A B C D E F G H I J K L M N)
        true
      )
      (h39 A B C D E F G H I J K L M N)
    )
  )
)
(assert
  (forall ( (A Int) (B Int) (C Int) (D Int) (E Int) (F Int) (G Int) (H Int) (I Int) (J Int) (K Int) (L Int) (M Int) (N Int) ) 
    (=>
      (and
        (h42 A B C D E F G H I J K L M N)
        true
      )
      (h39 A B C D E F G H I J K L M N)
    )
  )
)
(assert
  (forall ( (A Int) (B Int) (C Int) (D Int) (E Int) (F Int) (G Int) (H Int) (I Int) (J Int) (K Int) (L Int) (M Int) (N Int) ) 
    (=>
      (and
        (h39 A B C D E F G H I J K L M N)
        true
      )
      (h40 A B C D E F G H I J K L M N)
    )
  )
)
(assert
  (forall ( (A Int) (B Int) (C Int) (D Int) (E Int) (F Int) (G Int) (H Int) (I Int) (J Int) (K Int) (L Int) (M Int) (N Int) ) 
    (=>
      (and
        (h40 A B C D E F G H I J K L M N)
        (>= (+ I (* (- 1) J)) 1)
      )
      (h41 A B C D E F G H I J K L M N)
    )
  )
)
(assert
  (forall ( (A Int) (B Int) (C Int) (D Int) (E Int) (F Int) (G Int) (H Int) (I Int) (J Int) (K Int) (L Int) (M Int) (N Int) (O Int) ) 
    (=>
      (and
        (h41 A B C D E F G H I O K L M N)
        (= O (+ (- 1) J))
      )
      (h42 A B C D E F G H I J K L M N)
    )
  )
)
(assert
  (forall ( (A Int) (B Int) (C Int) (D Int) (E Int) (F Int) (G Int) (H Int) (I Int) (J Int) (K Int) (L Int) (M Int) (N Int) ) 
    (=>
      (and
        (h40 A B C D E F G H I J K L M N)
        (<= (+ I (* (- 1) J)) 0)
      )
      (h43 A B C D E F G H I J K L M N)
    )
  )
)
(assert
  (forall ( (A Int) (B Int) (C Int) (D Int) (E Int) (F Int) (G Int) (H Int) (I Int) (J Int) (K Int) (L Int) (M Int) (N Int) ) 
    (=>
      (and
        (h43 A B C D E F G H I J K L M N)
        true
      )
      (h44 A B C D E F G H I J K L M N)
    )
  )
)
(assert
  (forall ( (A Int) (B Int) (C Int) (D Int) (E Int) (F Int) (G Int) (H Int) (I Int) (J Int) (K Int) (L Int) (M Int) (N Int) ) 
    (=>
      (and
        (h44 A B C D E F G H I J K L M N)
        true
      )
      (h45 A B C D E F G H I J K L M N)
    )
  )
)
(assert
  (forall ( (A Int) (B Int) (C Int) (D Int) (E Int) (F Int) (G Int) (H Int) (I Int) (J Int) (K Int) (L Int) (M Int) (N Int) ) 
    (=>
      (and
        (h33 A B C D E F G H I J K L M N)
        (>= (+ H (* (- 1) I) (* (- 1) K)) 5)
      )
      (h46 A B C D E F G H I J K L M N)
    )
  )
)
(assert
  (forall ( (A Int) (B Int) (C Int) (D Int) (E Int) (F Int) (G Int) (H Int) (I Int) (J Int) (K Int) (L Int) (M Int) (N Int) ) 
    (=>
      (and
        (h33 A B C D E F G H I J K L M N)
        (<= (+ H (* (- 1) I) (* (- 1) K)) 4)
      )
      (h47 A B C D E F G H I J K L M N)
    )
  )
)
(assert
  (forall ( (A Int) (B Int) (C Int) (D Int) (E Int) (F Int) (G Int) (H Int) (I Int) (J Int) (K Int) (L Int) (M Int) (N Int) (O Int) ) 
    (=>
      (and
        (h47 A B C D E F G H O J K L M N)
        (= O (+ (- 2) I))
      )
      (h48 A B C D E F G H I J K L M N)
    )
  )
)
(assert
  (forall ( (A Int) (B Int) (C Int) (D Int) (E Int) (F Int) (G Int) (H Int) (I Int) (J Int) (K Int) (L Int) (M Int) (N Int) (O Int) ) 
    (=>
      (and
        (h26 A B C D E F G O I J K L M N)
        (= O (+ (- 4) H))
      )
      (h49 A B C D E F G H I J K L M N)
    )
  )
)
(assert
  (forall ( (A Int) (B Int) (C Int) (D Int) (E Int) (F Int) (G Int) (H Int) (I Int) (J Int) (K Int) (L Int) (M Int) (N Int) ) 
    (=>
      (and
        (h34 A B C D E F G H I J K L M N)
        true
      )
      CHC_COMP_FALSE
    )
  )
)
(assert
  (forall ( (A Int) (B Int) (C Int) (D Int) (E Int) (F Int) (G Int) (H Int) (I Int) (J Int) (K Int) (L Int) (M Int) (N Int) ) 
    (=>
      (and
        (h46 A B C D E F G H I J K L M N)
        true
      )
      CHC_COMP_FALSE
    )
  )
)
(assert
  (forall ( (CHC_COMP_UNUSED Bool) ) 
    (=>
      (and
        CHC_COMP_FALSE
      )
      false
    )
  )
)

(check-sat)
(exit)
